100
100
3000 3000 3000 3000 3000 3000 3000 3000 3000 3000 3000 3000 3000 3000 3000 3000 3000 3000 3000 3000 3000 3000 3000 3000 3000 3000 3000 3000 3000 3000 3000 3000 3000 3000 3000 3000 3000 3000 3000 3000 3000 3000 3000 3000 3000 3000 3000 3000 3000 3000 3000 3000 3000 3000 3000 3000 3000 3000 3000 3000 3000 3000 3000 3000 3000 3000 3000 3000 3000 3000 3000 3000 3000 3000 3000 3000 3000 3000 3000 3000 3000 3000 3000 3000 3000 3000 3000 3000 3000 3000 3000 3000 3000 3000 3000 3000 3000 3000 3000 3000
0 14 3
0 43 2
0 54 3
0 60 3
0 66 0
0 79 2
0 80 3
0 88 4
0 89 0
0 94 1
1 3 2
1 10 4
1 19 2
1 29 1
1 32 1
1 34 1
1 43 2
1 64 1
1 68 1
1 70 1
2 4 4
2 5 1
2 31 3
2 35 3
2 42 0
2 45 1
2 76 1
2 81 1
2 83 4
2 96 2
3 4 2
3 9 4
3 15 3
3 18 3
3 32 2
3 39 0
3 54 4
3 61 0
3 74 0
3 76 2
4 21 2
4 29 3
4 40 4
4 47 2
4 50 0
4 54 1
4 57 2
4 66 1
4 70 0
4 76 0
5 1 1
5 2 3
5 7 1
5 27 4
5 28 4
5 39 1
5 41 0
5 46 2
5 69 1
5 70 2
6 2 4
6 4 1
6 20 4
6 28 0
6 34 2
6 39 2
6 51 0
6 62 2
6 83 2
6 87 0
7 7 0
7 31 3
7 45 0
7 79 2
7 85 3
7 90 1
7 91 1
7 92 4
7 95 1
7 97 1
8 4 4
8 33 3
8 46 4
8 56 3
8 66 0
8 67 2
8 84 3
8 87 0
8 88 3
8 89 4
9 2 3
9 13 1
9 14 1
9 17 2
9 21 1
9 34 3
9 36 1
9 38 2
9 55 0
9 72 4
10 6 4
10 18 3
10 34 4
10 59 4
10 67 3
10 69 2
10 78 1
10 80 3
10 84 3
10 88 3
11 9 2
11 13 0
11 17 3
11 23 3
11 42 1
11 43 1
11 50 3
11 53 0
11 55 0
11 63 4
12 0 2
12 10 4
12 17 0
12 23 2
12 52 2
12 61 2
12 69 0
12 74 4
12 83 4
12 86 1
13 2 3
13 3 1
13 4 4
13 5 4
13 8 4
13 21 0
13 48 4
13 49 0
13 50 0
13 73 2
14 11 1
14 26 3
14 30 3
14 38 1
14 40 4
14 42 4
14 46 3
14 50 0
14 58 2
14 62 3
15 6 4
15 8 0
15 59 1
15 73 2
15 84 4
15 90 3
15 94 0
15 96 1
15 97 3
15 99 0
16 7 4
16 47 1
16 53 2
16 55 2
16 64 0
16 78 0
16 79 4
16 82 2
16 87 1
16 90 4
17 1 2
17 29 3
17 34 0
17 35 1
17 45 0
17 46 2
17 69 3
17 73 0
17 76 3
17 83 1
18 1 2
18 2 2
18 3 1
18 16 0
18 17 4
18 30 4
18 35 4
18 39 4
18 45 3
18 51 4
19 10 3
19 13 3
19 32 3
19 33 0
19 59 0
19 65 0
19 68 0
19 74 4
19 76 2
19 91 0
20 1 1
20 6 0
20 20 1
20 44 3
20 47 3
20 64 4
20 66 0
20 69 1
20 79 3
20 80 4
21 0 1
21 3 2
21 18 2
21 31 2
21 38 3
21 41 3
21 71 4
21 72 0
21 78 0
21 82 2
22 26 4
22 45 1
22 53 4
22 54 2
22 81 4
22 85 3
22 86 2
22 93 0
22 95 1
22 98 4
23 14 1
23 19 3
23 28 0
23 52 0
23 64 2
23 67 1
23 87 2
23 92 2
23 97 4
23 98 4
24 0 2
24 9 3
24 33 3
24 46 4
24 78 2
24 82 0
24 89 2
24 94 1
24 95 4
24 96 4
25 15 4
25 27 1
25 40 1
25 41 1
25 52 2
25 59 0
25 63 4
25 71 0
25 78 2
25 82 4
26 13 1
26 14 4
26 16 1
26 23 4
26 25 4
26 29 3
26 31 1
26 36 3
26 56 0
26 57 2
27 5 2
27 12 4
27 24 4
27 47 1
27 58 2
27 79 3
27 90 4
27 95 0
27 97 2
27 99 2
28 3 2
28 21 3
28 30 2
28 36 0
28 39 3
28 45 4
28 53 1
28 56 0
28 62 1
28 64 4
29 11 0
29 17 2
29 26 2
29 48 3
29 58 0
29 62 4
29 66 0
29 79 3
29 84 2
29 88 2
30 2 4
30 8 0
30 15 2
30 19 2
30 21 2
30 57 3
30 58 0
30 84 1
30 85 4
30 89 2
31 6 3
31 10 3
31 42 3
31 45 2
31 60 1
31 62 1
31 75 0
31 81 1
31 92 2
31 93 3
32 5 3
32 12 2
32 26 2
32 35 0
32 49 4
32 57 1
32 66 3
32 85 4
32 94 0
32 95 4
33 7 3
33 25 2
33 28 1
33 32 0
33 38 3
33 56 1
33 59 3
33 62 1
33 64 1
33 85 4
34 33 4
34 38 2
34 44 1
34 61 1
34 67 2
34 85 0
34 88 1
34 97 2
34 98 4
34 99 3
35 4 4
35 10 4
35 24 0
35 25 3
35 29 2
35 35 1
35 50 1
35 60 1
35 70 0
35 92 2
36 4 4
36 26 1
36 49 0
36 68 3
36 77 4
36 86 4
36 96 2
36 97 2
36 98 0
36 99 3
37 11 4
37 38 0
37 39 4
37 40 1
37 42 1
37 53 2
37 71 0
37 75 1
37 93 2
37 97 2
38 11 2
38 16 0
38 34 4
38 47 4
38 58 3
38 64 4
38 79 1
38 83 2
38 86 2
38 94 0
39 4 4
39 6 0
39 10 0
39 18 3
39 22 4
39 32 4
39 34 1
39 60 2
39 74 3
39 94 2
40 3 4
40 38 1
40 52 1
40 58 1
40 62 1
40 70 2
40 77 3
40 88 4
40 92 3
40 93 2
41 9 2
41 12 4
41 28 0
41 36 2
41 37 3
41 40 3
41 52 4
41 55 1
41 60 3
41 65 4
42 8 1
42 16 4
42 30 3
42 31 2
42 34 0
42 41 3
42 44 2
42 76 4
42 77 3
42 80 0
43 30 3
43 37 0
43 43 3
43 60 1
43 71 2
43 80 2
43 85 3
43 90 0
43 93 3
43 94 4
44 11 4
44 21 1
44 30 1
44 37 1
44 53 0
44 68 0
44 78 1
44 80 2
44 81 0
44 85 2
45 4 3
45 6 3
45 9 1
45 43 3
45 47 1
45 56 4
45 57 4
45 63 0
45 72 3
45 92 1
46 6 4
46 11 4
46 13 4
46 20 2
46 23 3
46 53 1
46 70 0
46 86 0
46 91 4
46 96 1
47 44 0
47 49 3
47 53 4
47 61 0
47 65 3
47 78 4
47 86 0
47 95 0
47 98 4
47 99 0
48 5 2
48 22 1
48 24 3
48 29 0
48 31 2
48 47 0
48 63 0
48 71 4
48 73 2
48 81 0
49 18 0
49 26 1
49 32 3
49 34 3
49 45 4
49 48 0
49 52 0
49 60 4
49 67 0
49 75 3
50 35 3
50 36 3
50 37 2
50 48 0
50 61 0
50 69 2
50 72 2
50 80 3
50 90 1
50 91 0
51 20 4
51 40 1
51 44 2
51 49 3
51 55 3
51 60 2
51 67 4
51 70 3
51 73 4
51 75 0
52 2 1
52 12 2
52 33 3
52 50 2
52 55 2
52 74 1
52 78 0
52 83 1
52 84 0
52 90 3
53 9 0
53 33 2
53 51 3
53 72 2
53 87 1
53 89 4
53 94 3
53 95 4
53 98 3
53 99 4
54 14 2
54 24 2
54 44 4
54 45 3
54 59 3
54 63 3
54 65 4
54 75 3
54 82 0
54 83 0
55 2 1
55 8 4
55 11 4
55 12 4
55 23 3
55 25 3
55 40 1
55 52 0
55 54 0
55 63 4
56 5 2
56 7 0
56 15 4
56 25 4
56 42 1
56 67 2
56 73 3
56 77 2
56 87 3
56 90 2
57 2 0
57 3 3
57 15 2
57 17 0
57 40 1
57 43 2
57 56 0
57 66 3
57 69 3
57 72 2
58 16 0
58 23 3
58 24 4
58 28 3
58 32 0
58 56 0
58 69 4
58 75 1
58 82 1
58 83 0
59 0 4
59 3 1
59 5 3
59 13 4
59 14 2
59 16 4
59 22 3
59 25 4
59 31 1
59 33 2
60 0 4
60 1 0
60 32 2
60 40 1
60 41 4
60 42 0
60 43 1
60 52 0
60 60 0
60 64 2
61 1 1
61 20 0
61 29 2
61 49 0
61 54 3
61 63 3
61 70 2
61 74 0
61 76 3
61 79 0
62 1 4
62 10 3
62 30 1
62 43 2
62 47 0
62 77 1
62 82 2
62 88 2
62 90 1
62 92 3
63 9 4
63 11 4
63 12 0
63 14 1
63 16 2
63 37 0
63 41 0
63 42 2
63 48 2
63 54 1
64 13 3
64 18 2
64 20 1
64 21 3
64 22 4
64 31 3
64 48 1
64 51 1
64 54 0
64 60 0
65 22 2
65 23 3
65 59 1
65 64 3
65 65 3
65 73 0
65 79 1
65 88 3
65 91 2
65 92 0
66 30 4
66 58 0
66 59 1
66 61 3
66 62 4
66 65 2
66 86 2
66 96 3
66 97 4
66 99 2
67 19 4
67 24 4
67 27 4
67 56 3
67 86 3
67 89 2
67 93 2
67 94 0
67 95 0
67 96 4
68 11 1
68 12 1
68 28 0
68 31 4
68 35 3
68 36 1
68 50 0
68 56 2
68 71 0
68 74 4
69 5 0
69 25 0
69 33 1
69 34 0
69 36 4
69 37 2
69 41 0
69 46 2
69 50 4
69 68 1
70 19 2
70 43 4
70 46 1
70 54 0
70 65 3
70 68 1
70 75 1
70 77 1
70 87 4
70 88 4
71 1 4
71 13 1
71 24 1
71 28 2
71 46 2
71 47 4
71 53 0
71 68 2
71 71 4
71 73 1
72 7 1
72 36 0
72 46 4
72 57 3
72 58 0
72 76 0
72 82 0
72 97 2
72 98 0
72 99 3
73 6 3
73 9 4
73 22 0
73 24 1
73 26 3
73 61 0
73 75 4
73 79 0
73 84 4
73 91 1
74 4 1
74 5 4
74 12 4
74 30 2
74 39 4
74 57 0
74 74 0
74 77 0
74 81 0
74 84 3
75 10 3
75 14 3
75 21 0
75 32 4
75 37 4
75 64 0
75 65 0
75 69 4
75 72 2
75 81 4
76 15 3
76 29 4
76 33 1
76 38 2
76 48 3
76 51 0
76 67 3
76 87 1
76 88 0
76 93 0
77 7 0
77 8 1
77 10 2
77 15 4
77 16 3
77 26 2
77 38 4
77 45 2
77 55 3
77 57 0
78 9 0
78 26 1
78 44 4
78 46 0
78 65 3
78 80 1
78 82 3
78 83 3
78 98 1
78 99 0
79 0 1
79 13 3
79 21 2
79 31 2
79 32 4
79 48 4
79 61 4
79 72 3
79 74 2
79 77 0
80 11 0
80 17 1
80 20 3
80 22 0
80 24 3
80 25 0
80 44 4
80 59 1
80 63 3
80 67 2
81 10 1
81 13 1
81 18 2
81 19 4
81 22 4
81 23 1
81 37 3
81 66 1
81 78 1
81 81 4
82 1 2
82 3 2
82 7 4
82 15 0
82 19 2
82 40 0
82 41 2
82 49 4
82 51 2
82 58 4
83 17 3
83 27 3
83 29 3
83 41 3
83 48 3
83 70 1
83 78 0
83 91 2
83 95 0
83 99 0
84 35 2
84 42 0
84 48 4
84 51 1
84 71 4
84 76 2
84 77 2
84 80 3
84 85 4
84 86 2
85 14 4
85 21 3
85 39 0
85 51 0
85 54 3
85 57 4
85 84 0
85 87 4
85 91 1
85 93 2
86 0 1
86 1 0
86 3 0
86 22 4
86 24 3
86 35 0
86 39 4
86 49 2
86 50 1
86 59 1
87 8 1
87 12 2
87 15 0
87 19 1
87 20 3
87 56 3
87 58 1
87 66 3
87 70 2
87 72 2
88 0 2
88 8 2
88 16 3
88 51 1
88 52 0
88 55 4
88 68 1
88 69 4
88 73 3
88 89 3
89 0 4
89 6 2
89 17 2
89 22 1
89 27 3
89 36 3
89 49 0
89 71 1
89 74 2
89 75 1
90 7 1
90 18 3
90 19 4
90 20 4
90 28 0
90 38 3
90 43 0
90 71 1
90 72 1
90 81 0
91 8 0
91 25 2
91 28 3
91 41 3
91 44 3
91 63 0
91 89 1
91 92 1
91 96 1
91 98 4
92 15 4
92 29 4
92 37 0
92 49 1
92 55 0
92 81 4
92 95 1
92 96 3
92 97 0
92 98 2
93 17 4
93 26 0
93 27 0
93 30 1
93 51 4
93 52 3
93 53 4
93 57 4
93 63 1
93 67 4
94 0 1
94 12 3
94 20 4
94 39 1
94 73 0
94 82 4
94 87 3
94 89 1
94 93 0
94 96 2
95 7 3
95 14 1
95 16 4
95 18 2
95 23 0
95 27 1
95 36 1
95 42 3
95 50 2
95 61 3
96 27 0
96 35 3
96 37 0
96 62 3
96 68 3
96 76 1
96 83 3
96 84 4
96 90 1
96 92 3
97 2 0
97 5 1
97 27 3
97 33 0
97 47 4
97 68 3
97 85 1
97 89 0
97 91 0
97 93 4
98 9 4
98 19 1
98 23 2
98 27 3
98 55 4
98 61 2
98 62 4
98 86 3
98 91 3
98 94 1
99 6 2
99 8 4
99 18 3
99 25 3
99 44 1
99 65 0
99 66 2
99 75 2
99 77 3
99 80 0
